p cnf 499 1904
-12 -42 31 0
9 42 13 0
4 13 -22 0
-24 -23 -43 0
-8 25 38 0
-47 -37 7 0
-49 35 31 0
19 16 -1 0
-50 22 8 0
-17 -3 -25 0
-37 39 -18 0
-33 -30 -50 0
30 3 -29 0
31 -14 -49 0
33 -3 10 0
39 -46 -29 0
-4 24 -23 0
13 -48 9 0
-3 -12 22 0
-48 18 -12 0
-7 -26 -39 0
-43 -31 -35 0
-43 30 -38 0
-37 26 -15 0
-34 -11 -47 0
-34 18 7 0
-11 -6 9 0
-2 43 -24 0
36 -15 23 0
19 1 13 0
27 42 18 0
25 32 2 0
-11 -4 8 0
24 13 -26 0
-6 -45 15 0
-15 -1 -45 0
-49 43 -37 0
12 -13 -47 0
25 -23 9 0
-33 -45 -16 0
3 -11 7 0
50 46 -43 0
-10 -30 27 0
-37 46 -10 0
34 42 2 0
-5 34 50 0
22 -2 -37 0
8 -3 -23 0
10 11 -38 0
6 15 49 0
2 7 51 0
-2 7 -51 0
2 -7 -51 0
-2 -7 51 0
9 -14 52 0
-9 -14 -52 0
9 14 -52 0
-9 14 52 0
17 -19 53 0
-17 -19 -53 0
17 19 -53 0
-17 19 53 0
20 -21 54 0
-20 -21 -54 0
20 21 -54 0
-20 21 54 0
-24 -32 55 0
24 -32 -55 0
-24 32 -55 0
24 32 55 0
-35 -36 56 0
35 -36 -56 0
-35 36 -56 0
35 36 56 0
-38 -40 57 0
38 -40 -57 0
-38 40 -57 0
38 40 57 0
-41 44 58 0
41 44 -58 0
-41 -44 -58 0
41 -44 58 0
-45 -47 59 0
45 -47 -59 0
-45 47 -59 0
45 47 59 0
-48 -49 60 0
48 -49 -60 0
-48 49 -60 0
48 49 60 0
50 -51 61 0
-50 -51 -61 0
50 51 -61 0
-50 51 61 0
52 -53 62 0
-52 -53 -62 0
52 53 -62 0
-52 53 62 0
54 -55 63 0
-54 -55 -63 0
54 55 -63 0
-54 55 63 0
56 -57 64 0
-56 -57 -64 0
56 57 -64 0
-56 57 64 0
58 -59 65 0
-58 -59 -65 0
58 59 -65 0
-58 59 65 0
60 -61 66 0
-60 -61 -66 0
60 61 -66 0
-60 61 66 0
62 -63 67 0
-62 -63 -67 0
62 63 -67 0
-62 63 67 0
64 -65 68 0
-64 -65 -68 0
64 65 -68 0
-64 65 68 0
-66 -67 68 0
66 -67 -68 0
-66 67 -68 0
66 67 68 0
1 4 69 0
-1 4 -69 0
1 -4 -69 0
-1 -4 69 0
-6 7 70 0
6 7 -70 0
-6 -7 -70 0
6 -7 70 0
9 -10 71 0
-9 -10 -71 0
9 10 -71 0
-9 10 71 0
12 17 72 0
-12 17 -72 0
12 -17 -72 0
-12 -17 72 0
19 -23 73 0
-19 -23 -73 0
19 23 -73 0
-19 23 73 0
-25 -26 74 0
25 -26 -74 0
-25 26 -74 0
25 26 74 0
27 30 75 0
-27 30 -75 0
27 -30 -75 0
-27 -30 75 0
32 -33 76 0
-32 -33 -76 0
32 33 -76 0
-32 33 76 0
34 -38 77 0
-34 -38 -77 0
34 38 -77 0
-34 38 77 0
44 -45 78 0
-44 -45 -78 0
44 45 -78 0
-44 45 78 0
-46 48 79 0
46 48 -79 0
-46 -48 -79 0
46 -48 79 0
-49 50 80 0
49 50 -80 0
-49 -50 -80 0
49 -50 80 0
69 -70 81 0
-69 -70 -81 0
69 70 -81 0
-69 70 81 0
71 -72 82 0
-71 -72 -82 0
71 72 -82 0
-71 72 82 0
73 -74 83 0
-73 -74 -83 0
73 74 -83 0
-73 74 83 0
75 -76 84 0
-75 -76 -84 0
75 76 -84 0
-75 76 84 0
77 -78 85 0
-77 -78 -85 0
77 78 -85 0
-77 78 85 0
79 -80 86 0
-79 -80 -86 0
79 80 -86 0
-79 80 86 0
81 -82 87 0
-81 -82 -87 0
81 82 -87 0
-81 82 87 0
83 -84 88 0
-83 -84 -88 0
83 84 -88 0
-83 84 88 0
85 -86 89 0
-85 -86 -89 0
85 86 -89 0
-85 86 89 0
-87 -88 89 0
87 -88 -89 0
-87 88 -89 0
87 88 89 0
-1 -4 90 0
1 -4 -90 0
-1 4 -90 0
1 4 90 0
7 10 91 0
-7 10 -91 0
7 -10 -91 0
-7 -10 91 0
-12 -15 92 0
12 -15 -92 0
-12 15 -92 0
12 15 92 0
18 -19 93 0
-18 -19 -93 0
18 19 -93 0
-18 19 93 0
22 24 94 0
-22 24 -94 0
22 -24 -94 0
-22 -24 94 0
26 -29 95 0
-26 -29 -95 0
26 29 -95 0
-26 29 95 0
31 32 96 0
-31 32 -96 0
31 -32 -96 0
-31 -32 96 0
-33 -39 97 0
33 -39 -97 0
-33 39 -97 0
33 39 97 0
40 41 98 0
-40 41 -98 0
40 -41 -98 0
-40 -41 98 0
-42 43 99 0
42 43 -99 0
-42 -43 -99 0
42 -43 99 0
44 -45 100 0
-44 -45 -100 0
44 45 -100 0
-44 45 100 0
-46 47 101 0
46 47 -101 0
-46 -47 -101 0
46 -47 101 0
-48 49 102 0
48 49 -102 0
-48 -49 -102 0
48 -49 102 0
90 -91 103 0
-90 -91 -103 0
90 91 -103 0
-90 91 103 0
92 -93 104 0
-92 -93 -104 0
92 93 -104 0
-92 93 104 0
94 -95 105 0
-94 -95 -105 0
94 95 -105 0
-94 95 105 0
96 -97 106 0
-96 -97 -106 0
96 97 -106 0
-96 97 106 0
98 -99 107 0
-98 -99 -107 0
98 99 -107 0
-98 99 107 0
100 -101 108 0
-100 -101 -108 0
100 101 -108 0
-100 101 108 0
102 -103 109 0
-102 -103 -109 0
102 103 -109 0
-102 103 109 0
104 -105 110 0
-104 -105 -110 0
104 105 -110 0
-104 105 110 0
106 -107 111 0
-106 -107 -111 0
106 107 -111 0
-106 107 111 0
108 -109 112 0
-108 -109 -112 0
108 109 -112 0
-108 109 112 0
110 -111 113 0
-110 -111 -113 0
110 111 -113 0
-110 111 113 0
112 113 0
-112 -113 0
-4 5 114 0
4 5 -114 0
-4 -5 -114 0
4 -5 114 0
6 -7 115 0
-6 -7 -115 0
6 7 -115 0
-6 7 115 0
8 -10 116 0
-8 -10 -116 0
8 10 -116 0
-8 10 116 0
11 -13 117 0
-11 -13 -117 0
11 13 -117 0
-11 13 117 0
-14 15 118 0
14 15 -118 0
-14 -15 -118 0
14 -15 118 0
16 17 119 0
-16 17 -119 0
16 -17 -119 0
-16 -17 119 0
-20 -22 120 0
20 -22 -120 0
-20 22 -120 0
20 22 120 0
23 -24 121 0
-23 -24 -121 0
23 24 -121 0
-23 24 121 0
25 -26 122 0
-25 -26 -122 0
25 26 -122 0
-25 26 122 0
-27 28 123 0
27 28 -123 0
-27 -28 -123 0
27 -28 123 0
-30 33 124 0
30 33 -124 0
-30 -33 -124 0
30 -33 124 0
-37 -40 125 0
37 -40 -125 0
-37 40 -125 0
37 40 125 0
-43 45 126 0
43 45 -126 0
-43 -45 -126 0
43 -45 126 0
-46 -47 127 0
46 -47 -127 0
-46 47 -127 0
46 47 127 0
113 -114 128 0
-113 -114 -128 0
113 114 -128 0
-113 114 128 0
115 -116 129 0
-115 -116 -129 0
115 116 -129 0
-115 116 129 0
117 -118 130 0
-117 -118 -130 0
117 118 -130 0
-117 118 130 0
119 -120 131 0
-119 -120 -131 0
119 120 -131 0
-119 120 131 0
121 -122 132 0
-121 -122 -132 0
121 122 -132 0
-121 122 132 0
123 -124 133 0
-123 -124 -133 0
123 124 -133 0
-123 124 133 0
125 -126 134 0
-125 -126 -134 0
125 126 -134 0
-125 126 134 0
127 -128 135 0
-127 -128 -135 0
127 128 -135 0
-127 128 135 0
129 -130 136 0
-129 -130 -136 0
129 130 -136 0
-129 130 136 0
131 -132 137 0
-131 -132 -137 0
131 132 -137 0
-131 132 137 0
133 -134 138 0
-133 -134 -138 0
133 134 -138 0
-133 134 138 0
135 -136 139 0
-135 -136 -139 0
135 136 -139 0
-135 136 139 0
137 -138 140 0
-137 -138 -140 0
137 138 -140 0
-137 138 140 0
139 140 0
-139 -140 0
1 -2 141 0
-1 -2 -141 0
1 2 -141 0
-1 2 141 0
-3 -4 142 0
3 -4 -142 0
-3 4 -142 0
3 4 142 0
-5 6 143 0
5 6 -143 0
-5 -6 -143 0
5 -6 143 0
7 9 144 0
-7 9 -144 0
7 -9 -144 0
-7 -9 144 0
11 -13 145 0
-11 -13 -145 0
11 13 -145 0
-11 13 145 0
14 19 146 0
-14 19 -146 0
14 -19 -146 0
-14 -19 146 0
20 21 147 0
-20 21 -147 0
20 -21 -147 0
-20 -21 147 0
-24 26 148 0
24 26 -148 0
-24 -26 -148 0
24 -26 148 0
-27 -29 149 0
27 -29 -149 0
-27 29 -149 0
27 29 149 0
30 31 150 0
-30 31 -150 0
30 -31 -150 0
-30 -31 150 0
32 34 151 0
-32 34 -151 0
32 -34 -151 0
-32 -34 151 0
36 -38 152 0
-36 -38 -152 0
36 38 -152 0
-36 38 152 0
44 -45 153 0
-44 -45 -153 0
44 45 -153 0
-44 45 153 0
-47 50 154 0
47 50 -154 0
-47 -50 -154 0
47 -50 154 0
141 -142 155 0
-141 -142 -155 0
141 142 -155 0
-141 142 155 0
143 -144 156 0
-143 -144 -156 0
143 144 -156 0
-143 144 156 0
145 -146 157 0
-145 -146 -157 0
145 146 -157 0
-145 146 157 0
147 -148 158 0
-147 -148 -158 0
147 148 -158 0
-147 148 158 0
149 -150 159 0
-149 -150 -159 0
149 150 -159 0
-149 150 159 0
151 -152 160 0
-151 -152 -160 0
151 152 -160 0
-151 152 160 0
153 -154 161 0
-153 -154 -161 0
153 154 -161 0
-153 154 161 0
155 -156 162 0
-155 -156 -162 0
155 156 -162 0
-155 156 162 0
157 -158 163 0
-157 -158 -163 0
157 158 -163 0
-157 158 163 0
159 -160 164 0
-159 -160 -164 0
159 160 -164 0
-159 160 164 0
161 -162 165 0
-161 -162 -165 0
161 162 -165 0
-161 162 165 0
163 -164 166 0
-163 -164 -166 0
163 164 -166 0
-163 164 166 0
165 166 0
-165 -166 0
-1 5 167 0
1 5 -167 0
-1 -5 -167 0
1 -5 167 0
-6 -10 168 0
6 -10 -168 0
-6 10 -168 0
6 10 168 0
11 13 169 0
-11 13 -169 0
11 -13 -169 0
-11 -13 169 0
-18 -19 170 0
18 -19 -170 0
-18 19 -170 0
18 19 170 0
-21 23 171 0
21 23 -171 0
-21 -23 -171 0
21 -23 171 0
28 -29 172 0
-28 -29 -172 0
28 29 -172 0
-28 29 172 0
-30 32 173 0
30 32 -173 0
-30 -32 -173 0
30 -32 173 0
-33 35 174 0
33 35 -174 0
-33 -35 -174 0
33 -35 174 0
36 37 175 0
-36 37 -175 0
36 -37 -175 0
-36 -37 175 0
-38 41 176 0
38 41 -176 0
-38 -41 -176 0
38 -41 176 0
45 46 177 0
-45 46 -177 0
45 -46 -177 0
-45 -46 177 0
-47 -49 178 0
47 -49 -178 0
-47 49 -178 0
47 49 178 0
166 -167 179 0
-166 -167 -179 0
166 167 -179 0
-166 167 179 0
168 -169 180 0
-168 -169 -180 0
168 169 -180 0
-168 169 180 0
170 -171 181 0
-170 -171 -181 0
170 171 -181 0
-170 171 181 0
172 -173 182 0
-172 -173 -182 0
172 173 -182 0
-172 173 182 0
174 -175 183 0
-174 -175 -183 0
174 175 -183 0
-174 175 183 0
176 -177 184 0
-176 -177 -184 0
176 177 -184 0
-176 177 184 0
178 -179 185 0
-178 -179 -185 0
178 179 -185 0
-178 179 185 0
180 -181 186 0
-180 -181 -186 0
180 181 -186 0
-180 181 186 0
182 -183 187 0
-182 -183 -187 0
182 183 -187 0
-182 183 187 0
184 -185 188 0
-184 -185 -188 0
184 185 -188 0
-184 185 188 0
186 -187 189 0
-186 -187 -189 0
186 187 -189 0
-186 187 189 0
188 189 0
-188 -189 0
3 4 190 0
-3 4 -190 0
3 -4 -190 0
-3 -4 190 0
5 -6 191 0
-5 -6 -191 0
5 6 -191 0
-5 6 191 0
8 11 192 0
-8 11 -192 0
8 -11 -192 0
-8 -11 192 0
12 14 193 0
-12 14 -193 0
12 -14 -193 0
-12 -14 193 0
15 -17 194 0
-15 -17 -194 0
15 17 -194 0
-15 17 194 0
-18 -19 195 0
18 -19 -195 0
-18 19 -195 0
18 19 195 0
20 22 196 0
-20 22 -196 0
20 -22 -196 0
-20 -22 196 0
-25 -27 197 0
25 -27 -197 0
-25 27 -197 0
25 27 197 0
-31 35 198 0
31 35 -198 0
-31 -35 -198 0
31 -35 198 0
36 37 199 0
-36 37 -199 0
36 -37 -199 0
-36 -37 199 0
38 -40 200 0
-38 -40 -200 0
38 40 -200 0
-38 40 200 0
-43 44 201 0
43 44 -201 0
-43 -44 -201 0
43 -44 201 0
-47 50 202 0
47 50 -202 0
-47 -50 -202 0
47 -50 202 0
190 -191 203 0
-190 -191 -203 0
190 191 -203 0
-190 191 203 0
192 -193 204 0
-192 -193 -204 0
192 193 -204 0
-192 193 204 0
194 -195 205 0
-194 -195 -205 0
194 195 -205 0
-194 195 205 0
196 -197 206 0
-196 -197 -206 0
196 197 -206 0
-196 197 206 0
198 -199 207 0
-198 -199 -207 0
198 199 -207 0
-198 199 207 0
200 -201 208 0
-200 -201 -208 0
200 201 -208 0
-200 201 208 0
202 -203 209 0
-202 -203 -209 0
202 203 -209 0
-202 203 209 0
204 -205 210 0
-204 -205 -210 0
204 205 -210 0
-204 205 210 0
206 -207 211 0
-206 -207 -211 0
206 207 -211 0
-206 207 211 0
208 -209 212 0
-208 -209 -212 0
208 209 -212 0
-208 209 212 0
210 -211 213 0
-210 -211 -213 0
210 211 -213 0
-210 211 213 0
212 213 0
-212 -213 0
4 7 214 0
-4 7 -214 0
4 -7 -214 0
-4 -7 214 0
-8 -9 215 0
8 -9 -215 0
-8 9 -215 0
8 9 215 0
-10 12 216 0
10 12 -216 0
-10 -12 -216 0
10 -12 216 0
14 -15 217 0
-14 -15 -217 0
14 15 -217 0
-14 15 217 0
-16 -19 218 0
16 -19 -218 0
-16 19 -218 0
16 19 218 0
21 22 219 0
-21 22 -219 0
21 -22 -219 0
-21 -22 219 0
25 -27 220 0
-25 -27 -220 0
25 27 -220 0
-25 27 220 0
-28 -31 221 0
28 -31 -221 0
-28 31 -221 0
28 31 221 0
34 -36 222 0
-34 -36 -222 0
34 36 -222 0
-34 36 222 0
-38 46 223 0
38 46 -223 0
-38 -46 -223 0
38 -46 223 0
214 -215 224 0
-214 -215 -224 0
214 215 -224 0
-214 215 224 0
216 -217 225 0
-216 -217 -225 0
216 217 -225 0
-216 217 225 0
218 -219 226 0
-218 -219 -226 0
218 219 -226 0
-218 219 226 0
220 -221 227 0
-220 -221 -227 0
220 221 -227 0
-220 221 227 0
222 -223 228 0
-222 -223 -228 0
222 223 -228 0
-222 223 228 0
224 -225 229 0
-224 -225 -229 0
224 225 -229 0
-224 225 229 0
226 -227 230 0
-226 -227 -230 0
226 227 -230 0
-226 227 230 0
-228 -229 230 0
228 -229 -230 0
-228 229 -230 0
228 229 230 0
3 -6 231 0
-3 -6 -231 0
3 6 -231 0
-3 6 231 0
7 8 232 0
-7 8 -232 0
7 -8 -232 0
-7 -8 232 0
-12 -13 233 0
12 -13 -233 0
-12 13 -233 0
12 13 233 0
14 -18 234 0
-14 -18 -234 0
14 18 -234 0
-14 18 234 0
-19 20 235 0
19 20 -235 0
-19 -20 -235 0
19 -20 235 0
-24 25 236 0
24 25 -236 0
-24 -25 -236 0
24 -25 236 0
-27 -28 237 0
27 -28 -237 0
-27 28 -237 0
27 28 237 0
-29 30 238 0
29 30 -238 0
-29 -30 -238 0
29 -30 238 0
-32 34 239 0
32 34 -239 0
-32 -34 -239 0
32 -34 239 0
-35 -36 240 0
35 -36 -240 0
-35 36 -240 0
35 36 240 0
-39 -40 241 0
39 -40 -241 0
-39 40 -241 0
39 40 241 0
-43 -45 242 0
43 -45 -242 0
-43 45 -242 0
43 45 242 0
46 47 243 0
-46 47 -243 0
46 -47 -243 0
-46 -47 243 0
230 -231 244 0
-230 -231 -244 0
230 231 -244 0
-230 231 244 0
232 -233 245 0
-232 -233 -245 0
232 233 -245 0
-232 233 245 0
234 -235 246 0
-234 -235 -246 0
234 235 -246 0
-234 235 246 0
236 -237 247 0
-236 -237 -247 0
236 237 -247 0
-236 237 247 0
238 -239 248 0
-238 -239 -248 0
238 239 -248 0
-238 239 248 0
240 -241 249 0
-240 -241 -249 0
240 241 -249 0
-240 241 249 0
242 -243 250 0
-242 -243 -250 0
242 243 -250 0
-242 243 250 0
244 -245 251 0
-244 -245 -251 0
244 245 -251 0
-244 245 251 0
246 -247 252 0
-246 -247 -252 0
246 247 -252 0
-246 247 252 0
248 -249 253 0
-248 -249 -253 0
248 249 -253 0
-248 249 253 0
250 -251 254 0
-250 -251 -254 0
250 251 -254 0
-250 251 254 0
252 -253 255 0
-252 -253 -255 0
252 253 -255 0
-252 253 255 0
254 255 0
-254 -255 0
-2 3 256 0
2 3 -256 0
-2 -3 -256 0
2 -3 256 0
6 -7 257 0
-6 -7 -257 0
6 7 -257 0
-6 7 257 0
-11 -12 258 0
11 -12 -258 0
-11 12 -258 0
11 12 258 0
14 15 259 0
-14 15 -259 0
14 -15 -259 0
-14 -15 259 0
-19 20 260 0
19 20 -260 0
-19 -20 -260 0
19 -20 260 0
21 -22 261 0
-21 -22 -261 0
21 22 -261 0
-21 22 261 0
-23 24 262 0
23 24 -262 0
-23 -24 -262 0
23 -24 262 0
25 31 263 0
-25 31 -263 0
25 -31 -263 0
-25 -31 263 0
32 34 264 0
-32 34 -264 0
32 -34 -264 0
-32 -34 264 0
-35 -36 265 0
35 -36 -265 0
-35 36 -265 0
35 36 265 0
37 -39 266 0
-37 -39 -266 0
37 39 -266 0
-37 39 266 0
42 -44 267 0
-42 -44 -267 0
42 44 -267 0
-42 44 267 0
45 47 268 0
-45 47 -268 0
45 -47 -268 0
-45 -47 268 0
255 -256 269 0
-255 -256 -269 0
255 256 -269 0
-255 256 269 0
257 -258 270 0
-257 -258 -270 0
257 258 -270 0
-257 258 270 0
259 -260 271 0
-259 -260 -271 0
259 260 -271 0
-259 260 271 0
261 -262 272 0
-261 -262 -272 0
261 262 -272 0
-261 262 272 0
263 -264 273 0
-263 -264 -273 0
263 264 -273 0
-263 264 273 0
265 -266 274 0
-265 -266 -274 0
265 266 -274 0
-265 266 274 0
267 -268 275 0
-267 -268 -275 0
267 268 -275 0
-267 268 275 0
269 -270 276 0
-269 -270 -276 0
269 270 -276 0
-269 270 276 0
271 -272 277 0
-271 -272 -277 0
271 272 -277 0
-271 272 277 0
273 -274 278 0
-273 -274 -278 0
273 274 -278 0
-273 274 278 0
275 -276 279 0
-275 -276 -279 0
275 276 -279 0
-275 276 279 0
277 -278 280 0
-277 -278 -280 0
277 278 -280 0
-277 278 280 0
279 280 0
-279 -280 0
3 5 281 0
-3 5 -281 0
3 -5 -281 0
-3 -5 281 0
6 -7 282 0
-6 -7 -282 0
6 7 -282 0
-6 7 282 0
-9 10 283 0
9 10 -283 0
-9 -10 -283 0
9 -10 283 0
11 12 284 0
-11 12 -284 0
11 -12 -284 0
-11 -12 284 0
-13 -14 285 0
13 -14 -285 0
-13 14 -285 0
13 14 285 0
24 -28 286 0
-24 -28 -286 0
24 28 -286 0
-24 28 286 0
29 34 287 0
-29 34 -287 0
29 -34 -287 0
-29 -34 287 0
-37 38 288 0
37 38 -288 0
-37 -38 -288 0
37 -38 288 0
-39 -40 289 0
39 -40 -289 0
-39 40 -289 0
39 40 289 0
-43 -45 290 0
43 -45 -290 0
-43 45 -290 0
43 45 290 0
48 50 291 0
-48 50 -291 0
48 -50 -291 0
-48 -50 291 0
281 -282 292 0
-281 -282 -292 0
281 282 -292 0
-281 282 292 0
283 -284 293 0
-283 -284 -293 0
283 284 -293 0
-283 284 293 0
285 -286 294 0
-285 -286 -294 0
285 286 -294 0
-285 286 294 0
287 -288 295 0
-287 -288 -295 0
287 288 -295 0
-287 288 295 0
289 -290 296 0
-289 -290 -296 0
289 290 -296 0
-289 290 296 0
291 -292 297 0
-291 -292 -297 0
291 292 -297 0
-291 292 297 0
293 -294 298 0
-293 -294 -298 0
293 294 -298 0
-293 294 298 0
295 -296 299 0
-295 -296 -299 0
295 296 -299 0
-295 296 299 0
-297 -298 299 0
297 -298 -299 0
-297 298 -299 0
297 298 299 0
1 -2 300 0
-1 -2 -300 0
1 2 -300 0
-1 2 300 0
-6 -7 301 0
6 -7 -301 0
-6 7 -301 0
6 7 301 0
8 -10 302 0
-8 -10 -302 0
8 10 -302 0
-8 10 302 0
11 -15 303 0
-11 -15 -303 0
11 15 -303 0
-11 15 303 0
-16 17 304 0
16 17 -304 0
-16 -17 -304 0
16 -17 304 0
18 -19 305 0
-18 -19 -305 0
18 19 -305 0
-18 19 305 0
-20 22 306 0
20 22 -306 0
-20 -22 -306 0
20 -22 306 0
-24 25 307 0
24 25 -307 0
-24 -25 -307 0
24 -25 307 0
26 -28 308 0
-26 -28 -308 0
26 28 -308 0
-26 28 308 0
29 -30 309 0
-29 -30 -309 0
29 30 -309 0
-29 30 309 0
31 -33 310 0
-31 -33 -310 0
31 33 -310 0
-31 33 310 0
-34 -36 311 0
34 -36 -311 0
-34 36 -311 0
34 36 311 0
-41 -43 312 0
41 -43 -312 0
-41 43 -312 0
41 43 312 0
-44 48 313 0
44 48 -313 0
-44 -48 -313 0
44 -48 313 0
299 -300 314 0
-299 -300 -314 0
299 300 -314 0
-299 300 314 0
301 -302 315 0
-301 -302 -315 0
301 302 -315 0
-301 302 315 0
303 -304 316 0
-303 -304 -316 0
303 304 -316 0
-303 304 316 0
305 -306 317 0
-305 -306 -317 0
305 306 -317 0
-305 306 317 0
307 -308 318 0
-307 -308 -318 0
307 308 -318 0
-307 308 318 0
309 -310 319 0
-309 -310 -319 0
309 310 -319 0
-309 310 319 0
311 -312 320 0
-311 -312 -320 0
311 312 -320 0
-311 312 320 0
313 -314 321 0
-313 -314 -321 0
313 314 -321 0
-313 314 321 0
315 -316 322 0
-315 -316 -322 0
315 316 -322 0
-315 316 322 0
317 -318 323 0
-317 -318 -323 0
317 318 -323 0
-317 318 323 0
319 -320 324 0
-319 -320 -324 0
319 320 -324 0
-319 320 324 0
321 -322 325 0
-321 -322 -325 0
321 322 -325 0
-321 322 325 0
323 -324 326 0
-323 -324 -326 0
323 324 -326 0
-323 324 326 0
325 326 0
-325 -326 0
1 -6 327 0
-1 -6 -327 0
1 6 -327 0
-1 6 327 0
-7 10 328 0
7 10 -328 0
-7 -10 -328 0
7 -10 328 0
-11 -14 329 0
11 -14 -329 0
-11 14 -329 0
11 14 329 0
-15 -20 330 0
15 -20 -330 0
-15 20 -330 0
15 20 330 0
-22 26 331 0
22 26 -331 0
-22 -26 -331 0
22 -26 331 0
-28 -31 332 0
28 -31 -332 0
-28 31 -332 0
28 31 332 0
32 -33 333 0
-32 -33 -333 0
32 33 -333 0
-32 33 333 0
-34 35 334 0
34 35 -334 0
-34 -35 -334 0
34 -35 334 0
38 39 335 0
-38 39 -335 0
38 -39 -335 0
-38 -39 335 0
40 -42 336 0
-40 -42 -336 0
40 42 -336 0
-40 42 336 0
43 48 337 0
-43 48 -337 0
43 -48 -337 0
-43 -48 337 0
49 -50 338 0
-49 -50 -338 0
49 50 -338 0
-49 50 338 0
327 -328 339 0
-327 -328 -339 0
327 328 -339 0
-327 328 339 0
329 -330 340 0
-329 -330 -340 0
329 330 -340 0
-329 330 340 0
331 -332 341 0
-331 -332 -341 0
331 332 -341 0
-331 332 341 0
333 -334 342 0
-333 -334 -342 0
333 334 -342 0
-333 334 342 0
335 -336 343 0
-335 -336 -343 0
335 336 -343 0
-335 336 343 0
337 -338 344 0
-337 -338 -344 0
337 338 -344 0
-337 338 344 0
339 -340 345 0
-339 -340 -345 0
339 340 -345 0
-339 340 345 0
341 -342 346 0
-341 -342 -346 0
341 342 -346 0
-341 342 346 0
343 -344 347 0
-343 -344 -347 0
343 344 -347 0
-343 344 347 0
-345 -346 347 0
345 -346 -347 0
-345 346 -347 0
345 346 347 0
1 2 348 0
-1 2 -348 0
1 -2 -348 0
-1 -2 348 0
-4 -5 349 0
4 -5 -349 0
-4 5 -349 0
4 5 349 0
-7 -8 350 0
7 -8 -350 0
-7 8 -350 0
7 8 350 0
-9 -10 351 0
9 -10 -351 0
-9 10 -351 0
9 10 351 0
11 -13 352 0
-11 -13 -352 0
11 13 -352 0
-11 13 352 0
15 -16 353 0
-15 -16 -353 0
15 16 -353 0
-15 16 353 0
20 -22 354 0
-20 -22 -354 0
20 22 -354 0
-20 22 354 0
25 26 355 0
-25 26 -355 0
25 -26 -355 0
-25 -26 355 0
-27 28 356 0
27 28 -356 0
-27 -28 -356 0
27 -28 356 0
29 -30 357 0
-29 -30 -357 0
29 30 -357 0
-29 30 357 0
31 34 358 0
-31 34 -358 0
31 -34 -358 0
-31 -34 358 0
35 -37 359 0
-35 -37 -359 0
35 37 -359 0
-35 37 359 0
40 41 360 0
-40 41 -360 0
40 -41 -360 0
-40 -41 360 0
-42 45 361 0
42 45 -361 0
-42 -45 -361 0
42 -45 361 0
-46 47 362 0
46 47 -362 0
-46 -47 -362 0
46 -47 362 0
-48 -49 363 0
48 -49 -363 0
-48 49 -363 0
48 49 363 0
348 -349 364 0
-348 -349 -364 0
348 349 -364 0
-348 349 364 0
350 -351 365 0
-350 -351 -365 0
350 351 -365 0
-350 351 365 0
352 -353 366 0
-352 -353 -366 0
352 353 -366 0
-352 353 366 0
354 -355 367 0
-354 -355 -367 0
354 355 -367 0
-354 355 367 0
356 -357 368 0
-356 -357 -368 0
356 357 -368 0
-356 357 368 0
358 -359 369 0
-358 -359 -369 0
358 359 -369 0
-358 359 369 0
360 -361 370 0
-360 -361 -370 0
360 361 -370 0
-360 361 370 0
362 -363 371 0
-362 -363 -371 0
362 363 -371 0
-362 363 371 0
364 -365 372 0
-364 -365 -372 0
364 365 -372 0
-364 365 372 0
366 -367 373 0
-366 -367 -373 0
366 367 -373 0
-366 367 373 0
368 -369 374 0
-368 -369 -374 0
368 369 -374 0
-368 369 374 0
370 -371 375 0
-370 -371 -375 0
370 371 -375 0
-370 371 375 0
372 -373 376 0
-372 -373 -376 0
372 373 -376 0
-372 373 376 0
374 -375 377 0
-374 -375 -377 0
374 375 -377 0
-374 375 377 0
376 377 0
-376 -377 0
2 -3 378 0
-2 -3 -378 0
2 3 -378 0
-2 3 378 0
-4 -7 379 0
4 -7 -379 0
-4 7 -379 0
4 7 379 0
-17 18 380 0
17 18 -380 0
-17 -18 -380 0
17 -18 380 0
19 22 381 0
-19 22 -381 0
19 -22 -381 0
-19 -22 381 0
23 24 382 0
-23 24 -382 0
23 -24 -382 0
-23 -24 382 0
-26 27 383 0
26 27 -383 0
-26 -27 -383 0
26 -27 383 0
-29 -30 384 0
29 -30 -384 0
-29 30 -384 0
29 30 384 0
-31 -32 385 0
31 -32 -385 0
-31 32 -385 0
31 32 385 0
-33 36 386 0
33 36 -386 0
-33 -36 -386 0
33 -36 386 0
-38 39 387 0
38 39 -387 0
-38 -39 -387 0
38 -39 387 0
-42 -43 388 0
42 -43 -388 0
-42 43 -388 0
42 43 388 0
-45 47 389 0
45 47 -389 0
-45 -47 -389 0
45 -47 389 0
377 -378 390 0
-377 -378 -390 0
377 378 -390 0
-377 378 390 0
379 -380 391 0
-379 -380 -391 0
379 380 -391 0
-379 380 391 0
381 -382 392 0
-381 -382 -392 0
381 382 -392 0
-381 382 392 0
383 -384 393 0
-383 -384 -393 0
383 384 -393 0
-383 384 393 0
385 -386 394 0
-385 -386 -394 0
385 386 -394 0
-385 386 394 0
387 -388 395 0
-387 -388 -395 0
387 388 -395 0
-387 388 395 0
389 -390 396 0
-389 -390 -396 0
389 390 -396 0
-389 390 396 0
391 -392 397 0
-391 -392 -397 0
391 392 -397 0
-391 392 397 0
393 -394 398 0
-393 -394 -398 0
393 394 -398 0
-393 394 398 0
395 -396 399 0
-395 -396 -399 0
395 396 -399 0
-395 396 399 0
397 -398 400 0
-397 -398 -400 0
397 398 -400 0
-397 398 400 0
399 400 0
-399 -400 0
-4 -7 401 0
4 -7 -401 0
-4 7 -401 0
4 7 401 0
-11 14 402 0
11 14 -402 0
-11 -14 -402 0
11 -14 402 0
-15 18 403 0
15 18 -403 0
-15 -18 -403 0
15 -18 403 0
-20 -23 404 0
20 -23 -404 0
-20 23 -404 0
20 23 404 0
-27 32 405 0
27 32 -405 0
-27 -32 -405 0
27 -32 405 0
34 37 406 0
-34 37 -406 0
34 -37 -406 0
-34 -37 406 0
40 41 407 0
-40 41 -407 0
40 -41 -407 0
-40 -41 407 0
43 -45 408 0
-43 -45 -408 0
43 45 -408 0
-43 45 408 0
46 -47 409 0
-46 -47 -409 0
46 47 -409 0
-46 47 409 0
400 -401 410 0
-400 -401 -410 0
400 401 -410 0
-400 401 410 0
402 -403 411 0
-402 -403 -411 0
402 403 -411 0
-402 403 411 0
404 -405 412 0
-404 -405 -412 0
404 405 -412 0
-404 405 412 0
406 -407 413 0
-406 -407 -413 0
406 407 -413 0
-406 407 413 0
408 -409 414 0
-408 -409 -414 0
408 409 -414 0
-408 409 414 0
410 -411 415 0
-410 -411 -415 0
410 411 -415 0
-410 411 415 0
412 -413 416 0
-412 -413 -416 0
412 413 -416 0
-412 413 416 0
-414 -415 416 0
414 -415 -416 0
-414 415 -416 0
414 415 416 0
-1 3 417 0
1 3 -417 0
-1 -3 -417 0
1 -3 417 0
4 -5 418 0
-4 -5 -418 0
4 5 -418 0
-4 5 418 0
9 10 419 0
-9 10 -419 0
9 -10 -419 0
-9 -10 419 0
-16 -17 420 0
16 -17 -420 0
-16 17 -420 0
16 17 420 0
-19 -22 421 0
19 -22 -421 0
-19 22 -421 0
19 22 421 0
23 25 422 0
-23 25 -422 0
23 -25 -422 0
-23 -25 422 0
27 29 423 0
-27 29 -423 0
27 -29 -423 0
-27 -29 423 0
-33 -35 424 0
33 -35 -424 0
-33 35 -424 0
33 35 424 0
-38 -41 425 0
38 -41 -425 0
-38 41 -425 0
38 41 425 0
44 47 426 0
-44 47 -426 0
44 -47 -426 0
-44 -47 426 0
416 -417 427 0
-416 -417 -427 0
416 417 -427 0
-416 417 427 0
418 -419 428 0
-418 -419 -428 0
418 419 -428 0
-418 419 428 0
420 -421 429 0
-420 -421 -429 0
420 421 -429 0
-420 421 429 0
422 -423 430 0
-422 -423 -430 0
422 423 -430 0
-422 423 430 0
424 -425 431 0
-424 -425 -431 0
424 425 -431 0
-424 425 431 0
426 -427 432 0
-426 -427 -432 0
426 427 -432 0
-426 427 432 0
428 -429 433 0
-428 -429 -433 0
428 429 -433 0
-428 429 433 0
430 -431 434 0
-430 -431 -434 0
430 431 -434 0
-430 431 434 0
-432 -433 434 0
432 -433 -434 0
-432 433 -434 0
432 433 434 0
2 -5 435 0
-2 -5 -435 0
2 5 -435 0
-2 5 435 0
13 14 436 0
-13 14 -436 0
13 -14 -436 0
-13 -14 436 0
16 17 437 0
-16 17 -437 0
16 -17 -437 0
-16 -17 437 0
-20 -23 438 0
20 -23 -438 0
-20 23 -438 0
20 23 438 0
24 -25 439 0
-24 -25 -439 0
24 25 -439 0
-24 25 439 0
-26 27 440 0
26 27 -440 0
-26 -27 -440 0
26 -27 440 0
-29 30 441 0
29 30 -441 0
-29 -30 -441 0
29 -30 441 0
33 -34 442 0
-33 -34 -442 0
33 34 -442 0
-33 34 442 0
-37 -38 443 0
37 -38 -443 0
-37 38 -443 0
37 38 443 0
-39 44 444 0
39 44 -444 0
-39 -44 -444 0
39 -44 444 0
-45 -46 445 0
45 -46 -445 0
-45 46 -445 0
45 46 445 0
-47 -49 446 0
47 -49 -446 0
-47 49 -446 0
47 49 446 0
435 -436 447 0
-435 -436 -447 0
435 436 -447 0
-435 436 447 0
437 -438 448 0
-437 -438 -448 0
437 438 -448 0
-437 438 448 0
439 -440 449 0
-439 -440 -449 0
439 440 -449 0
-439 440 449 0
441 -442 450 0
-441 -442 -450 0
441 442 -450 0
-441 442 450 0
443 -444 451 0
-443 -444 -451 0
443 444 -451 0
-443 444 451 0
445 -446 452 0
-445 -446 -452 0
445 446 -452 0
-445 446 452 0
447 -448 453 0
-447 -448 -453 0
447 448 -453 0
-447 448 453 0
449 -450 454 0
-449 -450 -454 0
449 450 -454 0
-449 450 454 0
451 -452 455 0
-451 -452 -455 0
451 452 -455 0
-451 452 455 0
-453 -454 455 0
453 -454 -455 0
-453 454 -455 0
453 454 455 0
-1 4 456 0
1 4 -456 0
-1 -4 -456 0
1 -4 456 0
5 8 457 0
-5 8 -457 0
5 -8 -457 0
-5 -8 457 0
9 12 458 0
-9 12 -458 0
9 -12 -458 0
-9 -12 458 0
-14 15 459 0
14 15 -459 0
-14 -15 -459 0
14 -15 459 0
-16 17 460 0
16 17 -460 0
-16 -17 -460 0
16 -17 460 0
-19 -21 461 0
19 -21 -461 0
-19 21 -461 0
19 21 461 0
23 25 462 0
-23 25 -462 0
23 -25 -462 0
-23 -25 462 0
-26 -30 463 0
26 -30 -463 0
-26 30 -463 0
26 30 463 0
34 -36 464 0
-34 -36 -464 0
34 36 -464 0
-34 36 464 0
-37 39 465 0
37 39 -465 0
-37 -39 -465 0
37 -39 465 0
-40 41 466 0
40 41 -466 0
-40 -41 -466 0
40 -41 466 0
-43 44 467 0
43 44 -467 0
-43 -44 -467 0
43 -44 467 0
-45 47 468 0
45 47 -468 0
-45 -47 -468 0
45 -47 468 0
455 -456 469 0
-455 -456 -469 0
455 456 -469 0
-455 456 469 0
457 -458 470 0
-457 -458 -470 0
457 458 -470 0
-457 458 470 0
459 -460 471 0
-459 -460 -471 0
459 460 -471 0
-459 460 471 0
461 -462 472 0
-461 -462 -472 0
461 462 -472 0
-461 462 472 0
463 -464 473 0
-463 -464 -473 0
463 464 -473 0
-463 464 473 0
465 -466 474 0
-465 -466 -474 0
465 466 -474 0
-465 466 474 0
467 -468 475 0
-467 -468 -475 0
467 468 -475 0
-467 468 475 0
469 -470 476 0
-469 -470 -476 0
469 470 -476 0
-469 470 476 0
471 -472 477 0
-471 -472 -477 0
471 472 -477 0
-471 472 477 0
473 -474 478 0
-473 -474 -478 0
473 474 -478 0
-473 474 478 0
475 -476 479 0
-475 -476 -479 0
475 476 -479 0
-475 476 479 0
477 -478 480 0
-477 -478 -480 0
477 478 -480 0
-477 478 480 0
479 480 0
-479 -480 0
-1 3 481 0
1 3 -481 0
-1 -3 -481 0
1 -3 481 0
-5 10 482 0
5 10 -482 0
-5 -10 -482 0
5 -10 482 0
-11 12 483 0
11 12 -483 0
-11 -12 -483 0
11 -12 483 0
-14 -15 484 0
14 -15 -484 0
-14 15 -484 0
14 15 484 0
-16 17 485 0
16 17 -485 0
-16 -17 -485 0
16 -17 485 0
19 21 486 0
-19 21 -486 0
19 -21 -486 0
-19 -21 486 0
-22 -23 487 0
22 -23 -487 0
-22 23 -487 0
22 23 487 0
24 -26 488 0
-24 -26 -488 0
24 26 -488 0
-24 26 488 0
28 33 489 0
-28 33 -489 0
28 -33 -489 0
-28 -33 489 0
-35 -36 490 0
35 -36 -490 0
-35 36 -490 0
35 36 490 0
-42 -49 491 0
42 -49 -491 0
-42 49 -491 0
42 49 491 0
481 -482 492 0
-481 -482 -492 0
481 482 -492 0
-481 482 492 0
483 -484 493 0
-483 -484 -493 0
483 484 -493 0
-483 484 493 0
485 -486 494 0
-485 -486 -494 0
485 486 -494 0
-485 486 494 0
487 -488 495 0
-487 -488 -495 0
487 488 -495 0
-487 488 495 0
489 -490 496 0
-489 -490 -496 0
489 490 -496 0
-489 490 496 0
491 -492 497 0
-491 -492 -497 0
491 492 -497 0
-491 492 497 0
493 -494 498 0
-493 -494 -498 0
493 494 -498 0
-493 494 498 0
495 -496 499 0
-495 -496 -499 0
495 496 -499 0
-495 496 499 0
-497 -498 499 0
497 -498 -499 0
-497 498 -499 0
497 498 499 0
